0 0 0 0
0 1 2 0
0 2 2 0
0 3 0 0
0 4 2 2
0 5 0 11
0 6 0 13
0 7 0 18
0 8 1 20
0 9 1 20
0 10 2 25
0 11 2 18
0 12 2 20
0 13 2 13
0 14 0 11
0 15 2 13
0 16 2 2
0 17 2 25
0 18 1 21
0 19 1 24
0 20 2 28
0 21 2 28
0 22 0 32
0 23 0 11
0 24 2 21
0 25 1 28
0 26 2 22
0 27 1 34
0 28 2 34
0 29 2 32
0 30 0 37
0 31 0 41
